# Objective value = 38.0
xobj 38.0
x0_r1 -0.0
x1_r1 0.0
x2_r1 0.0
x3_r1 -0.0
y0_r1 -0.0
y1_r1 -0.0
y2_r1 -0.0
y3_r1 0.0
SH0_r1 -0.0
SL0_r1 -0.0
x4_r1 -0.0
x5_r1 -0.0
x6_r1 0.0
x7_r1 -0.0
y4_r1 -0.0
y5_r1 -0.0
y6_r1 -0.0
y7_r1 0.0
SH1_r1 -0.0
SL1_r1 0.0
x8_r1 0.0
x9_r1 -0.0
x10_r1 -0.0
x11_r1 -0.0
y8_r1 -0.0
y9_r1 -0.0
y10_r1 -0.0
y11_r1 -0.0
SH2_r1 -0.0
SL2_r1 -0.0
x12_r1 1.0
x13_r1 1.0
x14_r1 1.0
x15_r1 1.0
y12_r1 0.0
y13_r1 4.136316520722517e-16
y14_r1 -0.0
y15_r1 0.9999999999999997
SH3_r1 1.0
SL3_r1 -0.0
x16_r1 -0.0
x17_r1 -0.0
x18_r1 -0.0
x19_r1 -0.0
y16_r1 -0.0
y17_r1 -2.9059360491778255e-16
y18_r1 -0.0
y19_r1 -1.0261311818085257e-16
SH4_r1 -1.0261311818085257e-16
SL4_r1 -0.0
x20_r1 -0.0
x21_r1 -0.0
x22_r1 -0.0
x23_r1 -1.1383990462199788e-17
y20_r1 -0.0
y21_r1 -0.0
y22_r1 -0.0
y23_r1 -1.1383977227309987e-17
SH5_r1 -1.1383977227309987e-17
SL5_r1 -0.0
x24_r1 -0.0
x25_r1 -0.0
x26_r1 0.0
x27_r1 -0.0
y24_r1 -0.0
y25_r1 -0.0
y26_r1 -0.0
y27_r1 -0.0
SH6_r1 -0.0
SL6_r1 -0.0
x28_r1 -0.0
x29_r1 -0.0
x30_r1 0.0
x31_r1 -0.0
y28_r1 -0.0
y29_r1 0.0
y30_r1 -0.0
y31_r1 -0.0
SH7_r1 0.0
SL7_r1 -0.0
x32_r1 -0.0
x33_r1 -0.0
x34_r1 -0.0
x35_r1 -0.0
y32_r1 4.3386951911342307e-16
y33_r1 1.0407628289393965e-15
y34_r1 -0.0
y35_r1 0.0
SH8_r1 4.410658316239568e-16
SL8_r1 -0.0
x36_r1 -0.0
x37_r1 -0.0
x38_r1 0.0
x39_r1 -0.0
y36_r1 -0.0
y37_r1 -0.0
y38_r1 -0.0
y39_r1 0.0
SH9_r1 0.0
SL9_r1 -0.0
x40_r1 -0.0
x41_r1 -0.0
x42_r1 -0.0
x43_r1 -0.0
y40_r1 -0.0
y41_r1 -0.0
y42_r1 -0.0
y43_r1 -0.0
SH10_r1 -0.0
SL10_r1 -0.0
x44_r1 -0.0
x45_r1 0.0
x46_r1 -0.0
x47_r1 -0.0
y44_r1 -0.0
y45_r1 0.0
y46_r1 -0.0
y47_r1 -0.0
SH11_r1 0.0
SL11_r1 -0.0
x48_r1 0.0
x49_r1 0.0
x50_r1 0.0
x51_r1 0.0
y48_r1 -0.0
y49_r1 -0.0
y50_r1 -0.0
y51_r1 -0.0
SH12_r1 0.0
SL12_r1 -0.0
x52_r1 -0.0
x53_r1 4.373164435916581e-17
x54_r1 6.95162619876789e-17
x55_r1 -0.0
y52_r1 -0.0
y53_r1 2.5282421389381118e-17
y54_r1 -0.0
y55_r1 4.0217948207524283e-16
SH13_r1 1.8207557190743648e-16
SL13_r1 -0.0
x56_r1 -0.0
x57_r1 -3.3228924312995034e-15
x58_r1 -0.0
x59_r1 -0.0
y56_r1 6.645784862599007e-15
y57_r1 -0.0
y58_r1 0.0
y59_r1 0.0
SH14_r1 -0.0
SL14_r1 -0.0
x60_r1 1.0
x61_r1 1.0
x62_r1 -0.0
x63_r1 1.0
y60_r1 0.0
y61_r1 0.0
y62_r1 0.0
y63_r1 1.0
SH15_r1 1.0
SL15_r1 1.0
y0_r2 -0.0
y1_r2 0.0
y2_r2 -0.0
y3_r2 -0.0
SH0_r2 -0.0
SL0_r2 -0.0
y4_r2 -0.0
y5_r2 -0.0
y6_r2 -0.0
y7_r2 -0.0
SH1_r2 0.0
SL1_r2 0.0
y8_r2 -0.0
y9_r2 -0.0
y10_r2 -0.0
y11_r2 -6.53724146823108e-17
SH2_r2 -6.53724146823108e-17
SL2_r2 6.537197793094737e-17
y12_r2 -0.0
y13_r2 -0.0
y14_r2 4.812599500815224e-15
y15_r2 -0.0
SH3_r2 3.3269041654533376e-16
SL3_r2 -0.0
y16_r2 -0.0
y17_r2 0.0
y18_r2 -0.0
y19_r2 -0.0
SH4_r2 -0.0
SL4_r2 -0.0
y20_r2 -0.0
y21_r2 -0.0
y22_r2 -1.8057366006922395e-17
y23_r2 -0.0
SH5_r2 -7.35651291063912e-17
SL5_r2 -1.0851425114058547e-16
y24_r2 -0.0
y25_r2 -0.0
y26_r2 1.2628074338644278e-15
y27_r2 1.55943530149845e-15
SH6_r2 1.55943530149845e-15
SL6_r2 -0.0
y28_r2 -0.0
y29_r2 -0.0
y30_r2 -0.0
y31_r2 -0.0
SH7_r2 -0.0
SL7_r2 -0.0
y32_r2 -0.0
y33_r2 -0.0
y34_r2 -0.0
y35_r2 0.0
SH8_r2 0.0
SL8_r2 -0.0
y36_r2 -0.0
y37_r2 -0.0
y38_r2 0.0
y39_r2 -2.220446049250313e-16
SH9_r2 -0.0
SL9_r2 -0.0
y40_r2 -0.0
y41_r2 -0.0
y42_r2 -2.219506504423351e-15
y43_r2 -0.0
SH10_r2 -2.219506504423351e-15
SL10_r2 -0.0
y44_r2 -0.0
y45_r2 -0.0
y46_r2 0.0
y47_r2 -0.0
SH11_r2 0.0
SL11_r2 -0.0
y48_r2 1.0
y49_r2 -0.0
y50_r2 0.0
y51_r2 1.0
SH12_r2 1.0
SL12_r2 -0.0
y52_r2 -4.745468205674327e-16
y53_r2 -0.0
y54_r2 -1.783533749562336e-17
y55_r2 -0.0
SH13_r2 9.920238120005552e-18
SL13_r2 -1.8598021181454405e-17
y56_r2 -0.0
y57_r2 -0.0
y58_r2 0.0
y59_r2 -0.0
SH14_r2 0.0
SL14_r2 0.0
y60_r2 1.0
y61_r2 -0.0
y62_r2 8.114172764650659e-16
y63_r2 0.9999999999999998
SH15_r2 1.0
SL15_r2 -7.529074697818503e-17
y0_r3 -0.0
y1_r3 -0.0
y2_r3 -0.0
y3_r3 -0.0
SH0_r3 -0.0
SL0_r3 -0.0
y4_r3 -0.0
y5_r3 -0.0
y6_r3 -0.0
y7_r3 -0.0
SH1_r3 -0.0
SL1_r3 -0.0
y8_r3 -0.0
y9_r3 -0.0
y10_r3 -0.0
y11_r3 -0.0
SH2_r3 -0.0
SL2_r3 -0.0
y12_r3 0.0
y13_r3 1.0
y14_r3 -0.0
y15_r3 -0.0
SH3_r3 1.0
SL3_r3 -0.0
y16_r3 -0.0
y17_r3 -0.0
y18_r3 -0.0
y19_r3 -0.0
SH4_r3 -0.0
SL4_r3 -0.0
y20_r3 -0.0
y21_r3 -0.0
y22_r3 -0.0
y23_r3 -0.0
SH5_r3 -0.0
SL5_r3 -0.0
y24_r3 -0.0
y25_r3 -0.0
y26_r3 -0.0
y27_r3 -0.0
SH6_r3 0.0
SL6_r3 -0.0
y28_r3 -0.0
y29_r3 -0.0
y30_r3 -0.0
y31_r3 -0.0
SH7_r3 0.0
SL7_r3 -0.0
y32_r3 -5.791048799199029e-15
y33_r3 6.348126433800862e-15
y34_r3 -4.290126877804041e-15
y35_r3 5.844434691826066e-16
SH8_r3 3.065633920517477e-15
SL8_r3 -0.0
y36_r3 -4.890185372899501e-16
y37_r3 1.1892423047580366e-15
y38_r3 -0.0
y39_r3 1.2429932156457816e-15
SH9_r3 1.1892423047580366e-15
SL9_r3 -0.0
y40_r3 -7.715402358577544e-16
y41_r3 -3.846097304367421e-15
y42_r3 -0.0
y43_r3 -2.722937757297086e-15
SH10_r3 -2.921012176847768e-15
SL10_r3 -0.0
y44_r3 -9.923652721574171e-18
y45_r3 0.0
y46_r3 -0.0
y47_r3 -3.338801053390254e-16
SH11_r3 -0.0
SL11_r3 6.171282471556635e-16
y48_r3 -1.2234432055322297e-16
y49_r3 -8.253714031172517e-17
y50_r3 -0.0
y51_r3 -0.0
SH12_r3 -8.253714692917007e-17
SL12_r3 -4.9304729068488755e-17
y52_r3 6.115278175096508e-16
y53_r3 1.3373906965734187e-15
y54_r3 -0.0
y55_r3 1.3706950526776125e-16
SH13_r3 1.0591270326314618e-15
SL13_r3 -0.0
y56_r3 0.0
y57_r3 0.0
y58_r3 -0.0
y59_r3 -0.0
SH14_r3 -0.0
SL14_r3 0.0
y60_r3 2.0200447706365196e-16
y61_r3 1.0000000000000004
y62_r3 -0.0
y63_r3 -0.0
SH15_r3 0.9999999999999993
SL15_r3 -0.0
y0_r4 0.0
y1_r4 0.0
y2_r4 -0.0
y3_r4 0.0
SH0_r4 -0.0
SL0_r4 -0.0
y4_r4 -0.0
y5_r4 -0.0
y6_r4 -0.0
y7_r4 -0.0
SH1_r4 0.0
SL1_r4 -0.0
y8_r4 -2.8586002687196483e-16
y9_r4 1.5426693430987352e-15
y10_r4 0.0
y11_r4 -0.0
SH2_r4 1.7831922894054743e-17
SL2_r4 -0.0
y12_r4 -1.1668095673146053e-15
y13_r4 -0.0
y14_r4 -0.0
y15_r4 -0.0
SH3_r4 4.841276499384955e-16
SL3_r4 -0.0
y16_r4 0.9999999999999947
y17_r4 -2.220446049250313e-16
y18_r4 5.3040070250497335e-15
y19_r4 1.0
SH4_r4 1.0
SL4_r4 -0.0
y20_r4 -0.0
y21_r4 -0.0
y22_r4 -0.0
y23_r4 -0.0
SH5_r4 -0.0
SL5_r4 -0.0
y24_r4 6.974957400353932e-15
y25_r4 4.485361543298436e-15
y26_r4 2.0474846742780635e-15
y27_r4 6.974957400353932e-15
SH6_r4 7.419046610203994e-15
SL6_r4 -0.0
y28_r4 0.9999999999999953
y29_r4 -4.929450753148499e-15
y30_r4 6.449327918635556e-15
y31_r4 1.0
SH7_r4 1.0
SL7_r4 -0.0
y32_r4 0.0
y33_r4 0.0
y34_r4 -0.0
y35_r4 0.0
SH8_r4 0.0
SL8_r4 -0.0
y36_r4 0.0
y37_r4 0.0
y38_r4 0.0
y39_r4 0.0
SH9_r4 -0.0
SL9_r4 -0.0
y40_r4 -5.3708966213243645e-17
y41_r4 4.2329478392903e-15
y42_r4 -0.0
y43_r4 9.17925890898535e-16
SH10_r4 9.17925890898535e-16
SL10_r4 -0.0
y44_r4 -2.430363577590386e-16
y45_r4 -2.5098655606240828e-15
y46_r4 -0.0
y47_r4 -0.0
SH11_r4 -1.008899090590025e-15
SL11_r4 -1.008899090590025e-15
y48_r4 -0.0
y49_r4 -0.0
y50_r4 -0.0
y51_r4 -0.0
SH12_r4 -0.0
SL12_r4 -0.0
y52_r4 0.0
y53_r4 -0.0
y54_r4 -0.0
y55_r4 -0.0
SH13_r4 -0.0
SL13_r4 -0.0
y56_r4 2.6459601971440033e-17
y57_r4 1.4650378205708129e-15
y58_r4 0.0
y59_r4 -0.0
SH14_r4 -3.338801582785846e-16
SL14_r4 -0.0
y60_r4 1.5649044873597526e-16
y61_r4 2.441735524302867e-16
y62_r4 -0.0
y63_r4 -0.0
SH15_r4 1.0016642380803912e-16
SL15_r4 1.1404420499840868e-16
y0_r5 -1.6747142108730757e-15
y1_r5 -2.6196729737185575e-17
y2_r5 -0.0
y3_r5 0.0
SH0_r5 -9.256928691098144e-16
SL0_r5 -0.0
y4_r5 -2.8819636403419895e-15
y5_r5 1.0
y6_r5 -0.0
y7_r5 7.47822042785213e-15
SH1_r5 1.0
SL1_r5 -0.0
y8_r5 -2.8286734094984324e-16
y9_r5 -1.8910473768595285e-16
y10_r5 -0.0
y11_r5 -0.0
SH2_r5 -1.805917918682511e-16
SL2_r5 -5.142282428860429e-18
y12_r5 2.6459601971440033e-17
y13_r5 -2.9553185135783547e-16
y14_r5 -0.0
y15_r5 -0.0
SH3_r5 2.6459601971440033e-17
SL3_r5 6.868055810609412e-18
y16_r5 -0.0
y17_r5 1.5426693430987352e-15
y18_r5 1.4316538168997976e-15
y19_r5 -0.0
SH4_r5 1.5426693430987352e-15
SL4_r5 8.808991244305402e-16
y20_r5 -0.0
y21_r5 3.863708178132022e-15
y22_r5 -2.220446049250313e-16
y23_r5 -0.0
SH5_r5 -2.220446049250313e-16
SL5_r5 -8.52833217118861e-15
y24_r5 -0.0
y25_r5 1.6536845516603176e-15
y26_r5 1.5426693430987352e-15
y27_r5 0.0
SH6_r5 1.4316538168997976e-15
SL6_r5 4.024781855971141e-15
y28_r5 -0.0
y29_r5 1.0543291203808582e-15
y30_r5 1.5426762252414316e-15
y31_r5 0.0
SH7_r5 1.5426761193623132e-15
SL7_r5 1.0543291203808582e-15
y32_r5 -0.0
y33_r5 0.0
y34_r5 0.0
y35_r5 -0.0
SH8_r5 0.0
SL8_r5 0.0
y36_r5 -2.9809524104206593e-15
y37_r5 -0.0
y38_r5 5.100352564200777e-15
y39_r5 0.0
SH9_r5 5.100352564200777e-15
SL9_r5 -0.0
y40_r5 -0.0
y41_r5 0.0
y42_r5 0.0
y43_r5 -0.0
SH10_r5 -0.0
SL10_r5 -0.0
y44_r5 0.0
y45_r5 0.0
y46_r5 0.0
y47_r5 -0.0
SH11_r5 0.0
SL11_r5 0.0
y48_r5 -0.0
y49_r5 0.0
y50_r5 -0.0
y51_r5 -0.0
SH12_r5 -0.0
SL12_r5 -0.0
y52_r5 -4.642981454221293e-16
y53_r5 1.0000000000000007
y54_r5 0.0
y55_r5 -0.0
SH13_r5 1.0
SL13_r5 -0.0
y56_r5 1.2871914742428498e-15
y57_r5 -0.0
y58_r5 -0.0
y59_r5 -0.0
SH14_r5 3.499247523184266e-16
SL14_r5 -0.0
y60_r5 -0.0
y61_r5 -0.0
y62_r5 -0.0
y63_r5 -0.0
SH15_r5 -0.0
SL15_r5 -0.0
y0_r6 -0.0
y1_r6 -3.0353562248920597e-15
y2_r6 -0.0
y3_r6 -2.731152229879999e-15
SH0_r6 -2.8819636403419895e-15
SL0_r6 1.9740368790872017e-15
y4_r6 -0.0
y5_r6 0.0
y6_r6 -0.0
y7_r6 -0.0
SH1_r6 -0.0
SL1_r6 -0.0
y8_r6 -0.0
y9_r6 -2.9531968348050304e-15
y10_r6 -0.0
y11_r6 -2.731152229879999e-15
SH2_r6 -2.9531968348050304e-15
SL2_r6 -0.0
y12_r6 -0.0
y13_r6 4.273763630631186e-16
y14_r6 -0.0
y15_r6 -1.5844505931808132e-15
SH3_r6 -3.8746391912558977e-16
SL3_r6 -0.0
y16_r6 -9.565807347622357e-15
y17_r6 1.0000000000000007
y18_r6 0.0
y19_r6 1.0000000000000004
SH4_r6 1.0
SL4_r6 -0.0
y20_r6 -3.522325101268332e-16
y21_r6 -6.1383205020515896e-15
y22_r6 -0.0
y23_r6 -0.0
SH5_r6 -3.522325101268332e-16
SL5_r6 -0.0
y24_r6 0.0
y25_r6 0.0
y26_r6 -0.0
y27_r6 -0.0
SH6_r6 0.0
SL6_r6 0.0
y28_r6 -8.595988504334073e-15
y29_r6 1.0000000000000007
y30_r6 0.0
y31_r6 1.0
SH7_r6 1.0
SL7_r6 -4.609920037754284e-16
y32_r6 -0.0
y33_r6 -0.0
y34_r6 -0.0
y35_r6 -0.0
SH8_r6 -0.0
SL8_r6 -0.0
y36_r6 -0.0
y37_r6 0.0
y38_r6 1.2907289855860712e-14
y39_r6 -0.0
SH9_r6 1.2241142488558462e-14
SL9_r6 1.1102230246251565e-16
y40_r6 -0.0
y41_r6 5.100366116727933e-15
y42_r6 5.100366116727933e-15
y43_r6 -0.0
SH10_r6 5.100366116727933e-15
SL10_r6 5.100366116727933e-15
y44_r6 -0.0
y45_r6 0.0
y46_r6 0.0
y47_r6 -0.0
SH11_r6 -0.0
SL11_r6 0.0
y48_r6 7.47822042785213e-15
y49_r6 0.0
y50_r6 7.47822042785213e-15
y51_r6 -0.0
SH12_r6 7.47822042785213e-15
SL12_r6 7.47822042785213e-15
y52_r6 0.0
y53_r6 0.0
y54_r6 -0.0
y55_r6 -0.0
SH13_r6 0.0
SL13_r6 0.0
y56_r6 0.0
y57_r6 0.0
y58_r6 0.0
y59_r6 -0.0
SH14_r6 -0.0
SL14_r6 0.0
y60_r6 0.0
y61_r6 -0.0
y62_r6 0.0
y63_r6 -0.0
SH15_r6 -0.0
SL15_r6 -0.0
y0_r7 -0.0
y1_r7 -0.0
y2_r7 -0.0
y3_r7 -0.0
SH0_r7 -0.0
SL0_r7 -0.0
y4_r7 -0.0
y5_r7 -7.43137675301189e-15
y6_r7 -9.565807347622357e-15
y7_r7 0.0
SH1_r7 -9.565807347622357e-15
SL1_r7 -2.323228415201939e-15
y8_r7 -0.0
y9_r7 -0.0
y10_r7 -0.0
y11_r7 -0.0
SH2_r7 -0.0
SL2_r7 -0.0
y12_r7 0.0
y13_r7 -7.43137675301189e-15
y14_r7 0.0
y15_r7 -0.0
SH3_r7 0.0
SL3_r7 0.0
y16_r7 -3.407218935329748e-15
y17_r7 -3.0353562248920597e-15
y18_r7 -0.0
y19_r7 -0.0
SH4_r7 -3.257400829817091e-15
SL4_r7 -3.8790636678558805e-15
y20_r7 -5.083076215510782e-15
y21_r7 1.0000000000000067
y22_r7 -0.0
y23_r7 0.0
SH5_r7 1.0000000000000007
SL5_r7 -0.0
y24_r7 -5.083076215510782e-15
y25_r7 6.193302628267728e-15
y26_r7 -0.0
y27_r7 -0.0
SH6_r7 0.0
SL6_r7 -6.432633746278121e-15
y28_r7 0.0
y29_r7 0.0
y30_r7 -0.0
y31_r7 -0.0
SH7_r7 0.0
SL7_r7 -0.0
y32_r7 -0.0
y33_r7 -0.0
y34_r7 -0.0
y35_r7 -0.0
SH8_r7 -0.0
SL8_r7 -0.0
y36_r7 -0.0
y37_r7 -0.0
y38_r7 -0.0
y39_r7 -0.0
SH9_r7 -0.0
SL9_r7 -0.0
y40_r7 1.583145214823932e-14
y41_r7 -2.091276277651111e-14
y42_r7 -3.5226677260954964e-15
y43_r7 3.3228506209591335e-14
SH10_r7 -3.536545513903311e-15
SL10_r7 -2.091276277651111e-14
y44_r7 3.9056435617407204e-15
y45_r7 0.0
y46_r7 1.105772946454343e-14
y47_r7 1.1057729252785193e-14
SH11_r7 1.1029973677169564e-14
SL11_r7 3.676663662801808e-15
y48_r7 -0.0
y49_r7 -4.106243886479674e-15
y50_r7 -0.0
y51_r7 -0.0
SH12_r7 -2.731152229879999e-15
SL12_r7 -1.2022144687614484e-15
y52_r7 -0.0
y53_r7 0.9999999999999996
y54_r7 -3.2843194310017143e-16
y55_r7 0.0
SH13_r7 1.0
SL13_r7 -0.0
y56_r7 -0.0
y57_r7 -0.0
y58_r7 -0.0
y59_r7 -0.0
SH14_r7 -0.0
SL14_r7 -0.0
y60_r7 -0.0
y61_r7 -0.0
y62_r7 -0.0
y63_r7 -0.0
SH15_r7 -0.0
SL15_r7 -0.0
y0_r8 -0.0
y1_r8 -0.0
y2_r8 -0.0
y3_r8 -0.0
SH0_r8 0.0
SL0_r8 -0.0
y4_r8 -0.0
y5_r8 -6.193302628267728e-15
y6_r8 -0.0
y7_r8 -0.0
SH1_r8 -5.305120820435814e-15
SL1_r8 -1.703609467664874e-15
y8_r8 0.0
y9_r8 6.8924776365982156e-15
y10_r8 0.0
y11_r8 8.938976126297659e-15
SH2_r8 1.583145214823932e-14
SL2_r8 7.11452404146826e-15
y12_r8 0.0
y13_r8 0.0
y14_r8 -0.0
y15_r8 -0.0
SH3_r8 -0.0
SL3_r8 -0.0
y16_r8 -1.3766765505351941e-14
y17_r8 -0.0
y18_r8 -0.0
y19_r8 -0.0
SH4_r8 -7.653414475794224e-15
SL4_r8 -0.0
y20_r8 4.0262651297757915e-15
y21_r8 0.9999999999999958
y22_r8 0.0
y23_r8 0.9999999999999964
SH5_r8 1.0
SL5_r8 5.451801357093163e-15
y24_r8 -3.9968028886505635e-15
y25_r8 -1.709743457922741e-14
y26_r8 0.0
y27_r8 -1.6764367671839864e-14
SH6_r8 -2.0968273927742366e-14
SL6_r8 2.706168622523819e-16
y28_r8 5.551115123125783e-15
y29_r8 0.9999999999999998
y30_r8 -0.0
y31_r8 1.0
SH7_r8 0.9999999999999999
SL7_r8 -0.0
y32_r8 -5.58835746775066e-15
y33_r8 -9.565807347622357e-15
y34_r8 0.0
y35_r8 -1.5651813612543863e-15
SH8_r8 -9.565807347622357e-15
SL8_r8 -9.508561472915122e-15
y36_r8 -0.0
y37_r8 0.0
y38_r8 0.0
y39_r8 -0.0
SH9_r8 0.0
SL9_r8 -0.0
y40_r8 -2.319542127815488e-15
y41_r8 3.347907888417989e-15
y42_r8 -0.0
y43_r8 -1.5096702100231285e-15
SH10_r8 3.347907888417989e-15
SL10_r8 -1.357129740617996e-15
y44_r8 -1.4073621825219651e-15
y45_r8 -1.4073621825219651e-15
y46_r8 -0.0
y47_r8 -1.7770073607037418e-15
SH11_r8 -1.4073621825219651e-15
SL11_r8 -0.0
y48_r8 0.0
y49_r8 0.0
y50_r8 0.0
y51_r8 0.0
SH12_r8 0.0
SL12_r8 -0.0
y52_r8 -0.0
y53_r8 0.0
y54_r8 0.0
y55_r8 -0.0
SH13_r8 0.0
SL13_r8 -0.0
y56_r8 1.1085374502359442e-14
y57_r8 2.2059837663572458e-14
y58_r8 1.1085374502359442e-14
y59_r8 0.0
SH14_r8 3.317299505836008e-14
SL14_r8 2.2170776956806143e-14
y60_r8 0.0
y61_r8 0.0
y62_r8 -0.0
y63_r8 -0.0
SH15_r8 -0.0
SL15_r8 -0.0
y0_r9 -0.0
y1_r9 0.0
y2_r9 -0.0
y3_r9 -0.0
SH0_r9 0.0
SL0_r9 -0.0
y4_r9 -0.0
y5_r9 1.2212453270876722e-14
y6_r9 -0.0
y7_r9 4.3298697960381105e-15
SH1_r9 4.0262651297757915e-15
SL1_r9 -0.0
y8_r9 -4.5106198507186e-16
y9_r9 -2.2987525511580786e-15
y10_r9 -1.452464992897362e-15
y11_r9 -3.761639437438458e-15
SH2_r9 -5.58835746775066e-15
SL2_r9 -0.0
y12_r9 -0.0
y13_r9 1.1224139039668667e-14
y14_r9 0.0
y15_r9 1.1085374502359442e-14
SH3_r9 1.1085374502359442e-14
SL3_r9 -0.0
y16_r9 -0.0
y17_r9 6.7814553341357e-15
y18_r9 -6.026765733502606e-15
y19_r9 6.8924776365982156e-15
SH4_r9 6.836966485366958e-15
SL4_r9 -0.0
y20_r9 1.0
y21_r9 1.0
y22_r9 -0.0
y23_r9 1.0
SH5_r9 1.0
SL5_r9 1.0
y24_r9 -8.812915675004973e-14
y25_r9 -9.246596543999175e-14
y26_r9 -0.0
y27_r9 -9.202187623014169e-14
SH6_r9 -9.246596543999175e-14
SL6_r9 -7.212980213111564e-15
y28_r9 -0.0
y29_r9 2.233747304082579e-14
y30_r9 -0.0
y31_r9 2.2059865192143244e-14
SH7_r9 2.205986476862677e-14
SL7_r9 -0.0
y32_r9 -0.0
y33_r9 0.0
y34_r9 -0.0
y35_r9 -0.0
SH8_r9 -0.0
SL8_r9 -0.0
y36_r9 -0.0
y37_r9 0.0
y38_r9 -0.0
y39_r9 -0.0
SH9_r9 0.0
SL9_r9 -0.0
y40_r9 0.0
y41_r9 -0.0
y42_r9 -0.0
y43_r9 0.0
SH10_r9 0.0
SL10_r9 -0.0
y44_r9 8.307085047783418e-15
y45_r9 8.390351986388542e-15
y46_r9 -0.0
y47_r9 -0.0
SH11_r9 1.1085374502359442e-14
SL11_r9 1.111313007797507e-14
y48_r9 -0.0
y49_r9 9.105512968123221e-15
y50_r9 -0.0
y51_r9 8.938976126297659e-15
SH12_r9 8.938976126297659e-15
SL12_r9 0.0
y52_r9 1.0000000000000169
y53_r9 1.0
y54_r9 -0.0
y55_r9 -0.0
SH13_r9 1.0
SL13_r9 -0.0
y56_r9 -1.7103695846773515e-15
y57_r9 4.335046861411729e-16
y58_r9 2.916368318714446e-16
y59_r9 -0.0
SH14_r9 -1.4541590587918707e-15
SL14_r9 -0.0
y60_r9 -0.0
y61_r9 0.0
y62_r9 0.0
y63_r9 -0.0
SH15_r9 -0.0
SL15_r9 -0.0
